n_res = 4;
rc = [ 0, 0, 0, 0 ];
n_tasks = 30;
d = [ 4, 2, 1, 2, 3, 9, 9, 3, 7, 10, 8, 4, 6, 3, 9, 6, 8, 4, 3, 4, 5, 6, 7, 9, 5, 1, 4, 5, 5, 1 ];
rr = [| 0, 0, 0, 0, 0, 0, 0, 0, 0, 0, 0, 0, 0, 0, 0, 0, 0, 0, 0, 0, 0, 0, 0, 0, 0, 0, 0, 0, 0, 0
      | 0, 0, 0, 0, 0, 0, 0, 0, 0, 0, 0, 0, 0, 0, 0, 0, 0, 0, 0, 0, 0, 0, 0, 0, 0, 0, 0, 0, 0, 0
      | 0, 0, 0, 0, 0, 0, 0, 0, 0, 0, 0, 0, 0, 0, 0, 0, 0, 0, 0, 0, 0, 0, 0, 0, 0, 0, 0, 0, 0, 0
      | 0, 0, 0, 0, 0, 0, 0, 0, 0, 0, 0, 0, 0, 0, 0, 0, 0, 0, 0, 0, 0, 0, 0, 0, 0, 0, 0, 0, 0, 0 |];
suc = [ { 6, 8, 17 },
       { 9, 10, 14 },
       { 4, 14, 21 },
       { 5, 13, 25 },
       { 16, 17, 20 },
       { 7, 12, 13 },
       { 15, 18, 23 },
       { 9, 14, 25 },
       { 11, 15, 30 },
       { 11, 15, 19 },
       { 13, 18 },
       { 18, 21, 22 },
       { 16, 23 },
       { 16, 24 },
       { 20, 27 },
       { 22, 28 },
       { 24, 30 },
       { 20, 27 },
       { 21, 22, 25 },
       { 26, 29 },
       { 23, 26 },
       { 27 },
       { 24, 28 },
       { 29 },
       { 26, 30 },
       { 28 },
       { 29 },
       {  },
       {  },
       {  } ];
